c FILE			: sample.gr
c No. of vertices	: 32
c No. of directed edges	: 128
c Max. weight		: 100
c Min. weight		: 0
c A directed arc from u to v of weight w
c is represented below as ' a  u  v  w '
p sp 32 128
a 1 9 52
a 1 2 23
a 1 17 66
a 1 5 22
a 1 4 91
a 2 5 33
a 2 4 11
a 2 25 6
a 2 18 9
a 2 13 57
a 2 21 75
a 2 20 76
a 2 14 77
a 2 18 70
a 2 1 52
a 2 28 56
a 3 20 96
a 3 7 29
a 3 8 45
a 3 23 40
a 3 2 64
a 3 1 3
a 3 11 54
a 3 2 92
a 3 13 4
a 3 27 61
a 3 6 44
a 3 2 6
a 4 19 56
a 4 2 26
a 4 2 40
a 4 19 20
a 4 3 8
a 4 2 42
a 5 7 30
a 5 2 40
a 5 2 14
a 5 9 71
a 5 31 62
a 6 12 16
a 6 1 66
a 6 8 77
a 6 17 35
a 6 11 99
a 7 3 94
a 7 19 56
a 7 5 7
a 7 5 11
a 7 15 82
a 7 6 59
a 9 14 63
a 9 1 26
a 9 22 3
a 9 11 98
a 10 2 27
a 10 9 1
a 10 26 61
a 11 13 35
a 11 3 94
a 11 25 22
a 11 3 42
a 11 17 15
a 11 25 89
a 12 4 10
a 12 2 70
a 13 15 10
a 13 5 18
a 13 1 10
a 13 26 36
a 13 10 15
a 13 5 21
a 14 13 31
a 14 5 56
a 14 2 50
a 14 29 99
a 14 32 15
a 15 1 15
a 15 1 51
a 15 1 9
a 15 14 87
a 15 13 58
a 15 13 70
a 16 12 90
a 16 6 11
a 17 1 57
a 17 22 71
a 17 1 1
a 17 9 23
a 17 2 42
a 18 30 51
a 18 2 2
a 18 2 24
a 19 1 23
a 19 7 90
a 19 3 26
a 19 4 68
a 19 17 33
a 19 1 3
a 19 15 79
a 20 19 12
a 20 18 61
a 21 4 81
a 21 23 42
a 21 25 10
a 22 7 82
a 22 24 28
a 23 32 25
a 25 29 80
a 25 3 28
a 25 31 59
a 25 27 45
a 25 17 59
a 25 21 17
a 26 17 94
a 26 29 84
a 27 28 28
a 27 19 2
a 27 21 1
a 28 25 44
a 28 32 82
a 29 9 94
a 29 6 81
a 29 11 58
a 29 3 46
a 29 20 82
a 30 26 58
a 30 32 95
a 32 31 4
